benchmark_instances/dzn_benchmark_instances/benchmark_instance_5-2.dzn
% Input: sequence of points
seq_points = [|2,1
              |4,1
              |1,2
              |2,2
              |4,2
              |1,3
              |2,3
              |4,3
              |2,4
              |4,4
              |5,0
              |5,2
              |5,3
              |5,5
              |0,5
              |0,0
             |];

num_points = 16;
