benchmark_instances/lp_benchmark_instances/benchmark_instance_5-2.lp
% Input: sequence of points
point(2,1).
point(4,1).
point(1,2).
point(2,2).
point(4,2).
point(1,3).
point(2,3).
point(4,3).
point(2,4).
point(4,4).
point(5,0).
point(5,2).
point(5,3).
point(5,5).
point(0,5).
point(0,0).
